30078.62,43.43,47.82
28100.31,46.48,51.19
29881.77,43.71,48.14
34518.53,37.84,41.67
24133.4,54.12,59.6
31056.33,42.06,46.32
28185.62,46.34,51.03
33604.68,38.87,42.81
30691.89,42.56,46.87
31071.64,42.04,46.29
31387.66,41.62,45.83
30561.19,42.74,47.07
25145.59,51.94,57.2
29965.38,43.59,48.0
28056.09,46.56,51.27
29804.79,43.82,48.26
31890.31,40.96,45.11
32531.27,40.15,44.22
28240.64,46.25,50.94
28936.02,45.14,49.71
